
Route #1: 6 59 55 21 44 31 50 49 23 9 
Route #2: 25 41 52 32 37 34 46 36 40 39 35 43 27 7 26 
Route #3: 16 60 4 63 58 54 47 8 
Route #4: 10 56 13 61 24 42 45 
Route #5: 29 38 28 57 1 53 
Route #6: 18 62 3 
Route #7: 51 19 48 33 
Route #8: 15 2 5 17 14 
Route #9: 22 12 11 30 20 
cost 2067.24
total time is 7.3